p cnf 2810 1000
-1 3 0
-1 2 0
-1 -4 0
-1 -5 0
-1 -6 0
-1 -7 0
-1 -8 0
-1 -9 0
-1 -10 0
-1 -11 0
-1 -12 0
-1 -13 0
-1 -14 0
-1 -15 0
-1 -16 0
-1 -17 0
-1 -18 0
-1 -19 0
-20 22 0
-20 21 0
-20 -23 0
-20 -24 0
-20 -25 0
-20 -26 0
-20 -27 0
-20 -28 0
-20 -29 0
-20 -30 0
-20 -31 0
-20 -32 0
-20 -33 0
-20 -34 0
-20 -35 0
-20 -36 0
-20 -37 0
-20 -38 0
-39 41 0
-39 40 0
-39 -42 0
-39 -43 0
-39 -44 0
-39 -45 0
-39 -46 0
-39 -47 0
-39 -48 0
-39 -49 0
-39 -50 0
-39 -51 0
-39 -52 0
-39 -53 0
-39 -54 0
-39 -55 0
-39 -56 0
-39 -57 0
-58 60 0
-58 59 0
-58 -61 0
-58 -62 0
-58 -63 0
-58 -64 0
-58 -65 0
-58 -66 0
-58 -67 0
-58 -68 0
-58 -69 0
-58 -70 0
-58 -71 0
-58 -72 0
-58 -73 0
-58 -74 0
-58 -75 0
-58 -76 0
-77 79 0
-77 78 0
-77 -80 0
-77 -81 0
-77 -82 0
-77 -83 0
-77 -84 0
-77 -85 0
-77 -86 0
-77 -87 0
-77 -88 0
-77 -89 0
-77 -90 0
-77 -91 0
-77 -92 0
-77 -93 0
-77 -94 0
-77 -95 0
-96 98 0
-96 97 0
-96 -99 0
-96 -100 0
-96 -101 0
-96 -102 0
-96 -103 0
-96 -104 0
-96 -105 0
-96 -106 0
-96 -107 0
-96 -108 0
-96 -109 0
-96 -110 0
-96 -111 0
-96 -112 0
-96 -113 0
-96 -114 0
115 -96 0
115 -77 0
115 -58 0
115 -39 0
115 -20 0
115 -1 0
96 77 58 39 20 1 -115 0
116 -22 0
116 21 0
116 117 0
22 -21 -117 -116 0
-116 -118 119 0
-119 116 0
-119 118 0
120 -23 0
120 -24 0
120 -25 0
120 -26 0
120 -27 0
120 -28 0
120 -29 0
120 -30 0
120 -31 0
120 -32 0
120 -33 0
120 -34 0
120 -35 0
120 -36 0
120 -37 0
120 -38 0
23 24 25 26 27 28 29 30 31 32 33 34 35 36 37 38 -120 0
-22 21 -120 121 0
-121 22 0
-121 -21 0
-121 120 0
22 -21 122 0
-122 -22 0
-122 21 0
118 -122 0
118 -121 0
122 121 -118 0
123 -22 0
123 21 0
123 -117 0
22 -21 117 -123 0
-123 -118 124 0
-124 123 0
-124 118 0
-38 -125 -126 -127 -128 129 0
-129 38 0
-129 125 0
-129 126 0
-129 127 0
-129 128 0
-26 -126 -125 -130 -131 132 0
-132 26 0
-132 126 0
-132 125 0
-132 130 0
-132 131 0
-23 -126 -125 -133 -134 -135 -136 -130 137 0
-137 23 0
-137 126 0
-137 125 0
-137 133 0
-137 134 0
-137 135 0
-137 136 0
-137 130 0
-138 -139 -125 -130 -140 -141 -140 142 0
-142 138 0
-142 139 0
-142 125 0
-142 130 0
-142 140 0
-142 141 0
-142 140 0
143 -142 0
143 -137 0
143 -132 0
143 -129 0
143 -144 0
142 137 132 129 144 -143 0
-37 -125 -126 -127 -128 145 0
-145 37 0
-145 125 0
-145 126 0
-145 127 0
-145 128 0
-25 -126 -125 -130 -131 146 0
-146 25 0
-146 126 0
-146 125 0
-146 130 0
-146 131 0
-38 -126 -125 -133 -134 -135 -136 -130 147 0
-147 38 0
-147 126 0
-147 125 0
-147 133 0
-147 134 0
-147 135 0
-147 136 0
-147 130 0
-38 -148 -125 -130 -140 -141 -140 149 0
-149 38 0
-149 148 0
-149 125 0
-149 130 0
-149 140 0
-149 141 0
-149 140 0
150 -149 0
150 -147 0
150 -146 0
150 -145 0
149 147 146 145 -150 0
-36 -125 -126 -127 -128 151 0
-151 36 0
-151 125 0
-151 126 0
-151 127 0
-151 128 0
-24 -126 -125 -130 -131 152 0
-152 24 0
-152 126 0
-152 125 0
-152 130 0
-152 131 0
-37 -126 -125 -133 -134 -135 -136 -130 153 0
-153 37 0
-153 126 0
-153 125 0
-153 133 0
-153 134 0
-153 135 0
-153 136 0
-153 130 0
-154 -155 -125 -130 -140 -141 -140 156 0
-156 154 0
-156 155 0
-156 125 0
-156 130 0
-156 140 0
-156 141 0
-156 140 0
157 -156 0
157 -153 0
157 -152 0
157 -151 0
156 153 152 151 -157 0
-35 -125 -126 -127 -128 158 0
-158 35 0
-158 125 0
-158 126 0
-158 127 0
-158 128 0
-23 -126 -125 -130 -131 159 0
-159 23 0
-159 126 0
-159 125 0
-159 130 0
-159 131 0
-36 -126 -125 -133 -134 -135 -136 -130 160 0
-160 36 0
-160 126 0
-160 125 0
-160 133 0
-160 134 0
-160 135 0
-160 136 0
-160 130 0
-161 -162 -125 -130 -140 -141 -140 163 0
-163 161 0
-163 162 0
-163 125 0
-163 130 0
-163 140 0
-163 141 0
-163 140 0
164 -163 0
164 -160 0
164 -159 0
164 -158 0
163 160 159 158 -164 0
-34 -125 -126 -127 -128 165 0
-165 34 0
-165 125 0
-165 126 0
-165 127 0
-165 128 0
-38 -126 -125 -130 -131 166 0
-166 38 0
-166 126 0
-166 125 0
-166 130 0
-166 131 0
-35 -126 -125 -133 -134 -135 -136 -130 167 0
-167 35 0
-167 126 0
-167 125 0
-167 133 0
-167 134 0
-167 135 0
-167 136 0
-167 130 0
-168 -169 -125 -130 -140 -141 -140 170 0
-170 168 0
-170 169 0
-170 125 0
-170 130 0
-170 140 0
-170 141 0
-170 140 0
171 -170 0
171 -167 0
171 -166 0
171 -165 0
170 167 166 165 -171 0
-33 -125 -126 -127 -128 172 0
-172 33 0
-172 125 0
-172 126 0
-172 127 0
-172 128 0
-37 -126 -125 -130 -131 173 0
-173 37 0
-173 126 0
-173 125 0
-173 130 0
-173 131 0
-34 -126 -125 -133 -134 -135 -136 -130 174 0
-174 34 0
-174 126 0
-174 125 0
-174 133 0
-174 134 0
-174 135 0
-174 136 0
-174 130 0
-34 -175 -125 -130 -140 -141 -140 176 0
-176 34 0
-176 175 0
-176 125 0
-176 130 0
-176 140 0
-176 141 0
-176 140 0
177 -176 0
177 -174 0
177 -173 0
177 -172 0
176 174 173 172 -177 0
-32 -125 -126 -127 -128 178 0
-178 32 0
-178 125 0
-178 126 0
-178 127 0
-178 128 0
-36 -126 -125 -130 -131 179 0
-179 36 0
-179 126 0
-179 125 0
-179 130 0
-179 131 0
-33 -126 -125 -133 -134 -135 -136 -130 180 0
-180 33 0
-180 126 0
-180 125 0
-180 133 0
-180 134 0
-180 135 0
-180 136 0
-180 130 0
-181 -182 -125 -130 -140 -141 -140 183 0
-183 181 0
-183 182 0
-183 125 0
-183 130 0
-183 140 0
-183 141 0
-183 140 0
184 -183 0
184 -180 0
184 -179 0
184 -178 0
183 180 179 178 -184 0
-31 -125 -126 -127 -128 185 0
-185 31 0
-185 125 0
-185 126 0
-185 127 0
-185 128 0
-35 -126 -125 -130 -131 186 0
-186 35 0
-186 126 0
-186 125 0
-186 130 0
-186 131 0
-32 -126 -125 -133 -134 -135 -136 -130 187 0
-187 32 0
-187 126 0
-187 125 0
-187 133 0
-187 134 0
-187 135 0
-187 136 0
-187 130 0
-188 -189 -125 -130 -140 -141 -140 190 0
-190 188 0
-190 189 0
-190 125 0
-190 130 0
-190 140 0
-190 141 0
-190 140 0
191 -190 0
191 -187 0
191 -186 0
191 -185 0
190 187 186 185 -191 0
-30 -125 -126 -127 -128 192 0
-192 30 0
-192 125 0
-192 126 0
-192 127 0
-192 128 0
-34 -126 -125 -130 -131 193 0
-193 34 0
-193 126 0
-193 125 0
-193 130 0
-193 131 0
-31 -126 -125 -133 -134 -135 -136 -130 194 0
-194 31 0
-194 126 0
-194 125 0
-194 133 0
-194 134 0
-194 135 0
-194 136 0
-194 130 0
-195 -196 -125 -130 -140 -141 -140 197 0
-197 195 0
-197 196 0
-197 125 0
-197 130 0
-197 140 0
-197 141 0
-197 140 0
198 -197 0
198 -194 0
198 -193 0
198 -192 0
197 194 193 192 -198 0
-29 -125 -126 -127 -128 199 0
-199 29 0
-199 125 0
-199 126 0
-199 127 0
-199 128 0
-33 -126 -125 -130 -131 200 0
-200 33 0
-200 126 0
-200 125 0
-200 130 0
-200 131 0
-30 -126 -125 -133 -134 -135 -136 -130 201 0
-201 30 0
-201 126 0
-201 125 0
-201 133 0
-201 134 0
-201 135 0
-201 136 0
-201 130 0
-30 -202 -125 -130 -140 -141 -140 203 0
-203 30 0
-203 202 0
-203 125 0
-203 130 0
-203 140 0
-203 141 0
-203 140 0
204 -203 0
204 -201 0
204 -200 0
204 -199 0
203 201 200 199 -204 0
-28 -125 -126 -127 -128 205 0
-205 28 0
-205 125 0
-205 126 0
-205 127 0
-205 128 0
-32 -126 -125 -130 -131 206 0
-206 32 0
-206 126 0
-206 125 0
-206 130 0
-206 131 0
-29 -126 -125 -133 -134 -135 -136 -130 207 0
-207 29 0
-207 126 0
-207 125 0
-207 133 0
-207 134 0
-207 135 0
-207 136 0
-207 130 0
-208 -209 -125 -130 -140 -141 -140 210 0
-210 208 0
-210 209 0
-210 125 0
-210 130 0
-210 140 0
-210 141 0
-210 140 0
211 -210 0
211 -207 0
211 -206 0
211 -205 0
210 207 206 205 -211 0
-27 -125 -126 -127 -128 212 0
-212 27 0
-212 125 0
-212 126 0
-212 127 0
-212 128 0
-31 -126 -125 -130 -131 213 0
-213 31 0
-213 126 0
-213 125 0
-213 130 0
-213 131 0
-28 -126 -125 -133 -134 -135 -136 -130 214 0
-214 28 0
-214 126 0
-214 125 0
-214 133 0
-214 134 0
-214 135 0
-214 136 0
-214 130 0
-215 -216 -125 -130 -140 -141 -140 217 0
-217 215 0
-217 216 0
-217 125 0
-217 130 0
-217 140 0
-217 141 0
-217 140 0
218 -217 0
218 -214 0
218 -213 0
218 -212 0
217 214 213 212 -218 0
-26 -125 -126 -127 -128 219 0
-219 26 0
-219 125 0
-219 126 0
-219 127 0
-219 128 0
-30 -126 -125 -130 -131 220 0
-220 30 0
-220 126 0
-220 125 0
-220 130 0
-220 131 0
-27 -126 -125 -133 -134 -135 -136 -130 221 0
-221 27 0
-221 126 0
-221 125 0
-221 133 0
-221 134 0
-221 135 0
-221 136 0
-221 130 0
-222 -223 -125 -130 -140 -141 -140 224 0
-224 222 0
-224 223 0
-224 125 0
-224 130 0
-224 140 0
-224 141 0
-224 140 0
225 -224 0
225 -221 0
225 -220 0
225 -219 0
224 221 220 219 -225 0
-25 -125 -126 -127 -128 226 0
-226 25 0
-226 125 0
-226 126 0
-226 127 0
-226 128 0
-29 -126 -125 -130 -131 227 0
-227 29 0
-227 126 0
-227 125 0
-227 130 0
-227 131 0
-26 -126 -125 -133 -134 -135 -136 -130 228 0
-228 26 0
-228 126 0
-228 125 0
-228 133 0
-228 134 0
-228 135 0
-228 136 0
-228 130 0
-26 -229 -125 -130 -140 -141 -140 230 0
-230 26 0
-230 229 0
-230 125 0
-230 130 0
-230 140 0
-230 141 0
-230 140 0
231 -230 0
231 -228 0
231 -227 0
231 -226 0
230 228 227 226 -231 0
-24 -125 -126 -127 -128 232 0
-232 24 0
-232 125 0
-232 126 0
-232 127 0
-232 128 0
-28 -126 -125 -130 -131 233 0
-233 28 0
-233 126 0
-233 125 0
-233 130 0
-233 131 0
-25 -126 -125 -133 -134 -135 -136 -130 234 0
-234 25 0
-234 126 0
-234 125 0
-234 133 0
-234 134 0
-234 135 0
-234 136 0
-234 130 0
-235 -236 -125 -130 -140 -141 -140 237 0
-237 235 0
-237 236 0
-237 125 0
-237 130 0
-237 140 0
-237 141 0
-237 140 0
238 -237 0
238 -234 0
238 -233 0
238 -232 0
237 234 233 232 -238 0
128 -239 0
128 -144 0
128 -240 0
128 -241 0
128 -242 0
128 -243 0
128 130 0
239 144 240 241 242 243 -130 -128 0
38 37 36 35 34 33 32 31 30 29 28 27 26 25 24 23 144 0
-144 -38 0
-144 -37 0
-144 -36 0
-144 -35 0
-144 -34 0
-144 -33 0
-144 -32 0
-144 -31 0
-144 -30 0
-144 -29 0
-144 -28 0
-144 -27 0
-144 -26 0
-144 -25 0
-144 -24 0
-144 -23 0
127 -239 0
127 -144 0
127 130 0
127 -244 0
239 144 -130 244 -127 0
-23 -125 -126 -127 -128 245 0
-245 23 0
-245 125 0
-245 126 0
-245 127 0
-245 128 0
246 -24 247 0
-247 -246 0
-247 24 0
236 246 -25 248 0
-248 -236 0
-248 -246 0
-248 25 0
229 236 246 -26 249 0
-249 -229 0
-249 -236 0
-249 -246 0
-249 26 0
138 -23 0
138 -249 0
138 -248 0
138 -247 0
23 249 248 247 -138 0
-138 -139 -130 -140 -141 -140 250 0
-250 138 0
-250 139 0
-250 130 0
-250 140 0
-250 141 0
-250 140 0
251 -250 0
251 139 0
250 -139 -251 0
-252 -246 -130 -140 -141 -140 253 0
-253 252 0
-253 246 0
-253 130 0
-253 140 0
-253 141 0
-253 140 0
254 -253 0
254 246 0
253 -246 -254 0
229 -26 255 0
-255 -229 0
-255 26 0
235 -25 0
235 -255 0
25 255 -235 0
-235 -236 -130 -140 -141 -140 256 0
-256 235 0
-256 236 0
-256 130 0
-256 140 0
-256 141 0
-256 140 0
257 -256 0
257 236 0
256 -236 -257 0
-26 -229 -130 -140 -141 -140 258 0
-258 26 0
-258 229 0
-258 130 0
-258 140 0
-258 141 0
-258 140 0
259 -258 0
259 229 0
258 -229 -259 0
-259 -257 -254 -251 -26 243 0
-243 259 0
-243 257 0
-243 254 0
-243 251 0
-243 26 0
216 -28 260 0
-260 -216 0
-260 28 0
209 216 -29 261 0
-261 -209 0
-261 -216 0
-261 29 0
202 209 216 -30 262 0
-262 -202 0
-262 -209 0
-262 -216 0
-262 30 0
222 -27 0
222 -262 0
222 -261 0
222 -260 0
27 262 261 260 -222 0
-222 -223 -130 -140 -141 -140 263 0
-263 222 0
-263 223 0
-263 130 0
-263 140 0
-263 141 0
-263 140 0
264 -263 0
264 223 0
263 -223 -264 0
209 -29 265 0
-265 -209 0
-265 29 0
202 209 -30 266 0
-266 -202 0
-266 -209 0
-266 30 0
215 -28 0
215 -266 0
215 -265 0
28 266 265 -215 0
-215 -216 -130 -140 -141 -140 267 0
-267 215 0
-267 216 0
-267 130 0
-267 140 0
-267 141 0
-267 140 0
268 -267 0
268 216 0
267 -216 -268 0
202 -30 269 0
-269 -202 0
-269 30 0
208 -29 0
208 -269 0
29 269 -208 0
-208 -209 -130 -140 -141 -140 270 0
-270 208 0
-270 209 0
-270 130 0
-270 140 0
-270 141 0
-270 140 0
271 -270 0
271 209 0
270 -209 -271 0
-30 -202 -130 -140 -141 -140 272 0
-272 30 0
-272 202 0
-272 130 0
-272 140 0
-272 141 0
-272 140 0
273 -272 0
273 202 0
272 -202 -273 0
-273 -271 -268 -264 -30 242 0
-242 273 0
-242 271 0
-242 268 0
-242 264 0
-242 30 0
189 -32 274 0
-274 -189 0
-274 32 0
182 189 -33 275 0
-275 -182 0
-275 -189 0
-275 33 0
175 182 189 -34 276 0
-276 -175 0
-276 -182 0
-276 -189 0
-276 34 0
195 -31 0
195 -276 0
195 -275 0
195 -274 0
31 276 275 274 -195 0
-195 -196 -130 -140 -141 -140 277 0
-277 195 0
-277 196 0
-277 130 0
-277 140 0
-277 141 0
-277 140 0
278 -277 0
278 196 0
277 -196 -278 0
182 -33 279 0
-279 -182 0
-279 33 0
175 182 -34 280 0
-280 -175 0
-280 -182 0
-280 34 0
188 -32 0
188 -280 0
188 -279 0
32 280 279 -188 0
-188 -189 -130 -140 -141 -140 281 0
-281 188 0
-281 189 0
-281 130 0
-281 140 0
-281 141 0
-281 140 0
282 -281 0
282 189 0
281 -189 -282 0
175 -34 283 0
-283 -175 0
-283 34 0
181 -33 0
181 -283 0
33 283 -181 0
-181 -182 -130 -140 -141 -140 284 0
-284 181 0
-284 182 0
-284 130 0
-284 140 0
-284 141 0
-284 140 0
285 -284 0
285 182 0
284 -182 -285 0
-34 -175 -130 -140 -141 -140 286 0
-286 34 0
-286 175 0
-286 130 0
-286 140 0
-286 141 0
-286 140 0
287 -286 0
287 175 0
286 -175 -287 0
-287 -285 -282 -278 -34 241 0
-241 287 0
-241 285 0
-241 282 0
-241 278 0
-241 34 0
162 -36 288 0
-288 -162 0
-288 36 0
155 162 -37 289 0
-289 -155 0
-289 -162 0
-289 37 0
148 155 162 -38 290 0
-290 -148 0
-290 -155 0
-290 -162 0
-290 38 0
168 -35 0
168 -290 0
168 -289 0
168 -288 0
35 290 289 288 -168 0
-168 -169 -130 -140 -141 -140 291 0
-291 168 0
-291 169 0
-291 130 0
-291 140 0
-291 141 0
-291 140 0
292 -291 0
292 169 0
291 -169 -292 0
155 -37 293 0
-293 -155 0
-293 37 0
148 155 -38 294 0
-294 -148 0
-294 -155 0
-294 38 0
161 -36 0
161 -294 0
161 -293 0
36 294 293 -161 0
-161 -162 -130 -140 -141 -140 295 0
-295 161 0
-295 162 0
-295 130 0
-295 140 0
-295 141 0
-295 140 0
296 -295 0
296 162 0
295 -162 -296 0
148 -38 297 0
-297 -148 0
-297 38 0
154 -37 0
154 -297 0
37 297 -154 0
-154 -155 -130 -140 -141 -140 298 0
-298 154 0
-298 155 0
-298 130 0
-298 140 0
-298 141 0
-298 140 0
299 -298 0
299 155 0
298 -155 -299 0
-38 -148 -130 -140 -141 -140 300 0
-300 38 0
-300 148 0
-300 130 0